========================================================== 
File name: C:\DEGR\assets\definitions\MSRCPSP_Gen\200_5_64_10_B.def
Creation date: Wed May 03 10:46:48 CEST 2023
Website: http://imopse.ii.pwr.edu.pl/ 
Reference: 
Myszkowski P. B., Skowronski M. E., Olech L., Oslizlo K., 
Hybrid Ant Colony Optimization in solving Multi-Skill Resource-Constrained Project Scheduling Problem, 
Soft Computing, DOI: DOI 10.1007/s00500-014-1455-x 
========================================================== 
General characteristics: 
Tasks: 200
Resources: 5
Precedence relations: 64
Number of skill types: 9
========================================================== 
ResourceID 	 Salary 	 Skills 
1	 	 	74.3	 	 Q6: 2 	 
2	 	 	51.2	 	 Q0: 0 	  Q2: 0 	  Q8: 3 	 
3	 	 	22.7	 	 Q3: 1 	  Q1: 3 	  Q2: 2 	  Q5: 2 	  Q6: 0 	  Q4: 2 	  Q7: 1 	 
4	 	 	47.9	 	 Q7: 3 	  Q0: 2 	 
5	 	 	36.1	 	 Q3: 0 	  Q4: 1 	  Q0: 2 	  Q6: 0 	  Q2: 0 	  Q1: 1 	 
========================================================== 
TaskID 	 Duration 	 Skill 	 Predecessor IDs 
1	26	Q3:	0
2	20	Q1:	3
3	38	Q3:	1
4	26	Q3:	0
5	20	Q2:	0
6	30	Q0:	2
7	19	Q6:	0
8	28	Q2:	0
9	32	Q2:	0
10	9	Q6:	0
11	37	Q3:	0
12	18	Q0:	0
13	34	Q4:	1
14	11	Q7:	3
15	13	Q0:	2
16	18	Q7:	1
17	9	Q4:	1
18	18	Q7:	3
19	25	Q6:	2
20	28	Q1:	3
21	14	Q2:	0
22	18	Q3:	0
23	37	Q4:	1
24	15	Q8:	3
25	22	Q4:	1
26	39	Q1:	1
27	13	Q4:	2
28	10	Q1:	1
29	15	Q6:	2
30	24	Q4:	2
31	32	Q5:	2
32	37	Q3:	0
33	16	Q2:	2
34	19	Q5:	2
35	9	Q2:	2
36	18	Q1:	1
37	32	Q7:	1
38	30	Q7:	1
39	28	Q5:	2
40	14	Q0:	0
41	10	Q3:	0
42	32	Q4:	2
43	9	Q7:	3
44	35	Q1:	3
45	16	Q7:	1
46	9	Q2:	2
47	36	Q6:	0
48	15	Q1:	1
49	17	Q0:	0
50	29	Q8:	3
51	20	Q6:	2
52	29	Q4:	1	37
53	38	Q1:	3
54	26	Q3:	1
55	10	Q3:	0
56	25	Q3:	1
57	15	Q0:	0
58	21	Q1:	3
59	22	Q6:	2
60	30	Q2:	0
61	16	Q3:	1
62	20	Q8:	3
63	35	Q1:	3	53
64	21	Q0:	2
65	28	Q3:	1
66	37	Q5:	2
67	21	Q3:	0
68	25	Q7:	3
69	40	Q6:	2
70	13	Q8:	3
71	34	Q1:	1	9
72	11	Q6:	2	45
73	11	Q4:	2
74	34	Q2:	2	37
75	35	Q0:	2	28
76	29	Q7:	1
77	38	Q2:	0
78	38	Q6:	0
79	9	Q3:	0	48
80	21	Q8:	3	17	21
81	21	Q0:	2	4
82	29	Q6:	0
83	17	Q2:	0
84	24	Q3:	1
85	15	Q1:	1
86	18	Q5:	2	25
87	37	Q4:	1
88	16	Q4:	1
89	34	Q4:	2
90	11	Q5:	2
91	16	Q3:	1
92	20	Q4:	1
93	31	Q5:	2	21	63
94	14	Q0:	0
95	39	Q7:	1
96	15	Q4:	1
97	23	Q6:	0	17
98	22	Q4:	2
99	25	Q8:	3
100	34	Q0:	0
101	40	Q3:	0	49
102	17	Q0:	2	95
103	9	Q5:	2	87
104	20	Q3:	1
105	22	Q4:	1
106	11	Q1:	3
107	22	Q6:	0
108	34	Q3:	1
109	29	Q4:	1
110	36	Q2:	2	12
111	17	Q2:	2
112	34	Q6:	0
113	29	Q7:	3
114	34	Q0:	2
115	32	Q0:	0
116	10	Q4:	2
117	24	Q0:	0	40
118	14	Q7:	3	51
119	17	Q7:	1
120	24	Q6:	0	100
121	13	Q1:	3
122	14	Q7:	1
123	39	Q0:	2	100
124	25	Q8:	3
125	14	Q3:	0	64
126	23	Q8:	3
127	26	Q0:	2	81
128	34	Q3:	1
129	11	Q3:	0
130	11	Q6:	0	13
131	20	Q3:	0	10
132	16	Q6:	0	20
133	27	Q8:	3
134	13	Q7:	1
135	31	Q0:	2	76
136	19	Q4:	1
137	35	Q6:	0
138	25	Q6:	0	42
139	24	Q7:	3
140	31	Q4:	2
141	29	Q3:	1
142	13	Q2:	2
143	39	Q1:	1
144	20	Q4:	2	100
145	30	Q8:	3	85
146	40	Q3:	1
147	9	Q2:	2
148	25	Q6:	2	101
149	20	Q0:	2
150	17	Q1:	3
151	23	Q2:	2
152	29	Q0:	0
153	10	Q7:	1	68
154	11	Q2:	0	57
155	40	Q0:	0	13	92
156	9	Q8:	3
157	24	Q7:	1
158	15	Q2:	0
159	12	Q7:	1	72
160	20	Q0:	0	131
161	28	Q1:	3	29
162	12	Q4:	1	39
163	27	Q3:	1
164	16	Q3:	1	133
165	14	Q5:	2	34	2
166	11	Q6:	2
167	26	Q4:	1
168	13	Q4:	2
169	16	Q2:	0
170	18	Q3:	0
171	38	Q3:	1
172	15	Q6:	2	13
173	10	Q4:	2	95	30	116
174	38	Q4:	2
175	22	Q2:	2
176	24	Q8:	3	168
177	40	Q6:	2
178	10	Q4:	2	4
179	22	Q0:	0	128	120
180	29	Q5:	2
181	12	Q6:	2	161
182	35	Q7:	1	20
183	19	Q0:	0
184	29	Q0:	2
185	20	Q1:	1
186	38	Q6:	2
187	31	Q3:	1	60
188	19	Q7:	1	184	171
189	17	Q1:	3	58
190	30	Q2:	0	80	44
191	34	Q7:	1
192	27	Q0:	2
193	27	Q1:	1	86
194	28	Q1:	1
195	34	Q1:	3	155
196	39	Q4:	2	31	78
197	34	Q1:	1	136
198	22	Q0:	0
199	29	Q2:	0
200	29	Q7:	1
========================================================== 